16
salicylaldimine (2-methanimidoylphenol), PubChem CID 260739 3D conformer, z set to 0 (max |z| was 3.0e-04 A) for exact Cs
O      0.0528    -2.3126     0.0000
N      2.8787     0.7156     0.0000
C      0.5496     0.0343     0.0000
C     -0.3679    -1.0163     0.0000
C      0.0985     1.3542     0.0000
C     -1.7366    -0.7470     0.0000
C     -1.2700     1.6236     0.0000
C     -2.1876     0.5730     0.0000
C      1.9826    -0.2248     0.0000
H      0.7883     2.1940     0.0000
H     -2.4629    -1.5554     0.0000
H     -1.6217     2.6513     0.0000
H     -3.2532     0.7829     0.0000
H      2.3300    -1.2716     0.0000
H     -0.7234    -2.8987     0.0000
H      3.8131     0.2913     0.0000
